67 71 93 
92 62 33 28 27 29 31 30 26 34 50 32 56 
82 99 9 87 86 74 66 
14 47 16 15 11 12 73 79 7 6 8 46 3 1 4 100 70 
65 52 57 22 20 49 24 48 25 77 58 
83 59 75 97 10 13 17 
5 45 2 88 90 
61 41 38 40 35 37 54 
72 36 39 42 44 43 68 
69 98 53 78 60 55 
64 19 23 21 18 51 84 94 81 96 
95 63 85 76 89 91 80 
